(set-option :parse-transducers true)
(define-funs-rec ((MatchTD_0_1main ((x String) (y String)) Bool) (MatchTD_0_1mainemptyos0a ((x String) (y String)) Bool) (MatchTD_0_1mainWildomain ((x String) (y String)) Bool) (MatchTD_0_1s0a ((x String) (y String)) Bool) (MatchTD_0_1s5i ((x String) (y String)) Bool) (MatchTD_0_1s5iWildcs5i ((x String) (y String)) Bool) (MatchTD_0_1s5iemptycs4a ((x String) (y String)) Bool) (MatchTD_0_1s2a ((x String) (y String)) Bool) (MatchTD_0_1s3a ((x String) (y String)) Bool) (MatchTD_0_1s4a ((x String) (y String)) Bool)) ((or (MatchTD_0_1mainemptyos0a x y) (and (not (exists ((z String)) (MatchTD_0_1mainemptyos0a x z))) (MatchTD_0_1mainWildomain x y))) (MatchTD_0_1s0a x y) (and (not (= x "")) (MatchTD_0_1main (str.tail x) y)) (and (not (= x "")) (= (str.head_code x) (str.to_code "&")) (MatchTD_0_1s2a (str.tail x) y)) (or (MatchTD_0_1s5iWildcs5i x y) (and (not (exists ((z String)) (MatchTD_0_1s5iWildcs5i x z))) (MatchTD_0_1s5iemptycs4a x y))) (and (and (not (= x "")) (not (= y ""))) (= (str.head y) (str.head x)) (MatchTD_0_1s5i (str.tail x) (str.tail y))) (MatchTD_0_1s4a x y) (MatchTD_0_1s5i x y) (or (and (= x "") (= y ""))) (MatchTD_0_1s3a x y)))
(define-funs-rec ((MatchTD_0_2main ((x String) (y String)) Bool) (MatchTD_0_2s2i ((x String) (y String)) Bool) (MatchTD_0_2s2iemptycs1a ((x String) (y String)) Bool) (MatchTD_0_2s2iWildcs2i ((x String) (y String)) Bool) (MatchTD_0_2s1a ((x String) (y String)) Bool) (MatchTD_0_2s0a ((x String) (y String)) Bool) (MatchTD_0_2s4a ((x String) (y String)) Bool) (MatchTD_0_2s3a ((x String) (y String)) Bool) (MatchTD_0_2s3aWildos3a ((x String) (y String)) Bool) (MatchTD_0_2s3aemptyos4a ((x String) (y String)) Bool)) ((MatchTD_0_2s2i x y) (or (MatchTD_0_2s2iemptycs1a x y) (and (not (exists ((z String)) (MatchTD_0_2s2iemptycs1a x z))) (MatchTD_0_2s2iWildcs2i x y))) (MatchTD_0_2s1a x y) (and (and (not (= x "")) (not (= y ""))) (= (str.head y) (str.head x)) (MatchTD_0_2s2i (str.tail x) (str.tail y))) (MatchTD_0_2s0a x y) (and (not (= x "")) (= (str.head_code x) (str.to_code "&")) (MatchTD_0_2s3a (str.tail x) y)) (or (and (= x "") (= y ""))) (or (MatchTD_0_2s3aWildos3a x y) (and (not (exists ((z String)) (MatchTD_0_2s3aWildos3a x z))) (MatchTD_0_2s3aemptyos4a x y))) (and (not (= x "")) (MatchTD_0_2s3a (str.tail x) y)) (MatchTD_0_2s4a x y)))
(declare-fun ExpandObjSwitcher () Real)
(declare-fun Constructed_Argument_t () String)
(declare-fun Constructed_Argument_2_t () String)
(declare-fun CreateAsClass () Bool)
(declare-fun Constructed_Argument () String)
(declare-fun |0 Fill 0| () String)
(declare-fun |0 Fill 3| () String)
(declare-fun |0 Fill 2| () String)
(declare-fun |0 Fill 1| () String)
(declare-fun IsMatch_/&/_0 () Bool)
(declare-fun IsMatch_/&/_1 () Bool)
(declare-fun |IsMatch_/BS+/_2| () Bool)
(declare-fun |IsMatch_/BS+/_3| () Bool)
(assert (= ExpandObjSwitcher 0.0))
(assert (= Constructed_Argument_t "string"))
(assert (not (= Constructed_Argument_2_t "string")))
(assert (not (= Constructed_Argument_2_t "number")))
(assert (not (= Constructed_Argument_2_t "boolean")))
(assert (not (= Constructed_Argument_2_t "object")))
(assert (not (= Constructed_Argument_2_t "array_number")))
(assert (not (= Constructed_Argument_2_t "array_string")))
(assert (not (= Constructed_Argument_2_t "array_bool")))
(assert (not (= Constructed_Argument_2_t "null")))
(assert (not CreateAsClass))
(assert (not (= Constructed_Argument "")))
(assert (MatchTD_0_2main (ite (<= (str.len Constructed_Argument) 0) "" Constructed_Argument) |0 Fill 1|))
(assert (MatchTD_0_1main (ite (<= (str.len Constructed_Argument) 0) "" Constructed_Argument) |0 Fill 2|))
(assert (str.in.re (ite (<= (str.len Constructed_Argument) 0) "" Constructed_Argument) (re.++ (re.* (re.range "\x00" "\xff")) (str.to.re "&") (re.* (re.range "\x00" "\xff")))))
(assert IsMatch_/&/_0)
(assert (not IsMatch_/&/_1))
(assert (not (str.in.re (ite (<= (+ (str.len Constructed_Argument) (* (- 1) (ite (>= (str.len |0 Fill 1|) (- 1)) (+ 1 (str.len |0 Fill 1|)) (ite (>= (+ (str.len Constructed_Argument) (str.len |0 Fill 1|)) (- 1)) (+ 1 (str.len Constructed_Argument) (str.len |0 Fill 1|)) 0)))) 0) "" (str.substr Constructed_Argument (ite (>= (str.len |0 Fill 1|) (- 1)) (+ 1 (str.len |0 Fill 1|)) (ite (>= (+ (str.len Constructed_Argument) (str.len |0 Fill 1|)) (- 1)) (+ 1 (str.len Constructed_Argument) (str.len |0 Fill 1|)) 0)) (+ (str.len Constructed_Argument) (* (- 1) (ite (>= (str.len |0 Fill 1|) (- 1)) (+ 1 (str.len |0 Fill 1|)) (ite (>= (+ (str.len Constructed_Argument) (str.len |0 Fill 1|)) (- 1)) (+ 1 (str.len Constructed_Argument) (str.len |0 Fill 1|)) 0)))))) (re.++ (re.* (re.range "\x00" "\xff")) (str.to.re "&") (re.* (re.range "\x00" "\xff"))))))
(assert (= (to_real (str.indexof (ite (<= (str.len Constructed_Argument) 0) "" (str.substr Constructed_Argument 0 (ite (<= (+ (str.len Constructed_Argument) (* (- 1) (str.len |0 Fill 1|))) 0) (str.len Constructed_Argument) (str.len |0 Fill 1|)))) "]=" 0)) (- 1.0)))
(assert (not (= (to_real (str.indexof (ite (<= (str.len Constructed_Argument) 0) "" (str.substr Constructed_Argument 0 (ite (<= (+ (str.len Constructed_Argument) (* (- 1) (str.len |0 Fill 1|))) 0) (str.len Constructed_Argument) (str.len |0 Fill 1|)))) "=" 0)) (- 1.0))))
(assert (let ((a!2 (ite (<= (str.len Constructed_Argument) 0) "" (str.substr Constructed_Argument 0 (ite (<= (+ (str.len Constructed_Argument) (* (- 1) (str.len |0 Fill 1|))) 0) (str.len Constructed_Argument) (str.len |0 Fill 1|)))))) (= (str.in.re (str.substr a!2 0 (ite (>= (str.indexof a!2 "=" 0) 0) (str.indexof a!2 "=" 0) (+ (str.indexof a!2 "=" 0) (str.len a!2)))) (re.++ (re.* (re.range "\x00" "\xff")) (str.to.re "+") (re.* (re.range "\x00" "\xff")))) |IsMatch_/BS+/_2|)))
(assert (not |IsMatch_/BS+/_2|))
(assert (let ((a!2 (ite (<= (str.len Constructed_Argument) 0) "" (str.substr Constructed_Argument 0 (ite (<= (+ (str.len Constructed_Argument) (* (- 1) (str.len |0 Fill 1|))) 0) (str.len Constructed_Argument) (str.len |0 Fill 1|)))))) (= (str.substr a!2 (to_int (ite (>= (to_real (str.indexof a!2 "=" 0)) (- 1.0)) (+ 1.0 (to_real (str.indexof a!2 "=" 0))) (+ 1.0 (to_real (str.indexof a!2 "=" 0)) (to_real (str.len a!2))))) (+ (str.len a!2) (to_int (* (- 1.0) (ite (>= (to_real (str.indexof a!2 "=" 0)) (- 1.0)) (+ 1.0 (to_real (str.indexof a!2 "=" 0))) (+ 1.0 (to_real (str.indexof a!2 "=" 0)) (to_real (str.len a!2)))))))) "")))
(assert (not |IsMatch_/BS+/_3|))
(assert (not (<= (to_real (str.indexof (ite (<= (str.len Constructed_Argument) 0) "" (str.substr Constructed_Argument 0 (ite (<= (+ (str.len Constructed_Argument) (* (- 1) (str.len |0 Fill 1|))) 0) (str.len Constructed_Argument) (str.len |0 Fill 1|)))) "[]=" 0)) (- 1.0))))
(check-sat)
